NAME : 4.76023.tour
COMMENT : Length = 76023
COMMENT : Found by LKH-3 [Keld Helsgaun] Thu Jun 19 18:16:01 2025
TYPE : TOUR
DIMENSION : 100
TOUR_SECTION
1
21
9
41
10
27
23
63
43
58
29
16
67
86
64
85
55
94
12
53
52
83
33
91
65
35
44
36
98
81
15
84
93
72
47
40
7
2
92
99
100
54
13
56
11
79
14
68
28
22
45
30
24
87
73
32
46
42
89
76
66
48
90
69
51
5
95
74
77
62
59
3
80
38
26
60
34
96
19
88
71
4
75
18
20
39
6
61
57
82
70
17
78
31
49
8
25
50
97
37
-1
EOF
